data;


param d:= 100;
param r:=5;
param p:=0.820000;
param M:=1000;
param U:=
         1         1        6.042491e-01
         2         1        5.882339e-01
         3         1        9.296615e-01
         4         1       -1.004450e+00
         5         1        4.235410e-01
         6         1       -1.566286e+00
         7         1        3.244558e-01
         8         1        1.212913e-01
         9         1        8.016357e-01
        10         1       -5.594346e-01
        11         1        2.212896e-01
        12         1       -3.448445e-02
        13         1       -4.053174e-02
        14         1       -1.582383e+00
        15         1        1.114771e+00
        16         1        7.054328e-01
        17         1       -4.620085e-01
        18         1       -1.092679e+00
        19         1        4.027796e-01
        20         1        8.369835e-01
        21         1       -8.560071e-01
        22         1        1.649210e-01
        23         1       -6.084385e-01
        24         1        3.257038e-01
        25         1        1.985699e+00
        26         1        7.518829e-01
        27         1       -8.330762e-01
        28         1        3.211935e-01
        29         1        1.413414e-02
        30         1       -8.968334e-01
        31         1        6.218617e-01
        32         1        1.115642e+00
        33         1       -5.249221e-02
        34         1        1.010411e-01
        35         1       -5.682409e-01
        36         1       -1.370098e+00
        37         1       -8.351129e-01
        38         1        7.061475e-01
        39         1       -4.249899e-01
        40         1        6.948992e-01
        41         1       -8.410004e-01
        42         1        1.235694e-01
        43         1        2.428291e+00
        44         1       -2.604855e-01
        45         1       -1.849822e+00
        46         1       -3.252845e-01
        47         1       -5.249370e-01
        48         1        2.063112e-01
        49         1       -1.154780e+00
        50         1        7.823164e-01
        51         1       -8.147381e-01
        52         1        7.115539e-01
        53         1       -3.416349e-01
        54         1        1.677693e+00
        55         1        2.331337e-02
        56         1        6.764066e-01
        57         1       -3.355438e-01
        58         1       -1.112176e+00
        59         1       -3.616504e-01
        60         1       -1.673097e+00
        61         1        3.839853e-01
        62         1        7.060312e-02
        63         1       -8.687641e-02
        64         1       -1.446911e+00
        65         1        6.071616e-01
        66         1       -5.417841e-01
        67         1       -3.277356e-01
        68         1        9.877032e-02
        69         1       -1.061587e+00
        70         1        1.183101e+00
        71         1       -1.122631e+00
        72         1       -2.826020e-01
        73         1       -1.289777e-01
        74         1       -7.844575e-02
        75         1       -8.652565e-01
        76         1       -6.436099e-01
        77         1       -1.641987e+00
        78         1        1.836828e-01
        79         1        6.259216e-01
        80         1       -4.932578e-02
        81         1       -1.321306e+00
        82         1       -4.464074e-01
        83         1        1.598134e+00
        84         1        8.382905e-01
        85         1        1.103230e+00
        86         1        2.286580e-01
        87         1        1.303980e+00
        88         1        3.307986e-01
        89         1        1.242494e+00
        90         1        4.845587e-01
        91         1       -3.189374e-01
        92         1       -1.132093e+00
        93         1        1.338557e+00
        94         1        4.369253e-01
        95         1       -7.755475e-01
        96         1        1.189944e-01
        97         1       -2.246039e+00
        98         1        3.258816e-02
        99         1       -1.881854e-01
       100         1       -7.881767e-01
         1         2        1.611891e+00
         2         2       -1.327494e+00
         3         2        2.118221e+00
         4         2        8.428162e-01
         5         2        1.373021e+00
         6         2        1.361390e+00
         7         2        7.221215e-01
         8         2       -5.940051e-01
         9         2       -6.383336e-01
        10         2        9.147429e-01
        11         2       -2.300909e+00
        12         2        4.261498e-01
        13         2       -3.684328e-01
        14         2       -3.641322e-01
        15         2       -1.616694e-01
        16         2       -1.587260e+00
        17         2        9.769222e-01
        18         2       -5.549584e-01
        19         2       -8.035135e-03
        20         2       -6.310211e-01
        21         2       -5.775025e-01
        22         2        1.987231e-01
        23         2        1.321733e+00
        24         2        1.828185e+00
        25         2        9.153832e-02
        26         2        1.279122e+00
        27         2        4.810673e-01
        28         2       -8.344577e-01
        29         2        7.872474e-01
        30         2       -1.384293e-02
        31         2        1.061236e+00
        32         2       -8.186276e-01
        33         2        1.059458e+00
        34         2        1.461750e+00
        35         2       -8.439690e-01
        36         2       -9.494002e-01
        37         2        1.637527e+00
        38         2       -2.496324e-02
        39         2       -2.296314e+00
        40         2        3.543175e-01
        41         2       -9.495782e-01
        42         2       -2.514701e-01
        43         2       -6.220926e-01
        44         2        1.196655e+00
        45         2        3.414212e-02
        46         2        2.167290e-01
        47         2       -5.601712e-01
        48         2        1.339104e-01
        49         2        2.716742e-01
        50         2        3.466074e+00
        51         2       -9.456008e-01
        52         2        1.018297e+00
        53         2        1.639692e+00
        54         2        7.278468e-01
        55         2       -1.720012e-01
        56         2       -1.104290e+00
        57         2        2.043358e+00
        58         2        8.886298e-03
        59         2       -7.821950e-01
        60         2       -3.452027e-01
        61         2       -4.675601e-01
        62         2       -2.047728e-01
        63         2       -1.155661e+00
        64         2       -5.182879e-01
        65         2       -1.417711e+00
        66         2       -1.073027e+00
        67         2        5.758162e-01
        68         2       -7.487340e-01
        69         2        6.881346e-01
        70         2       -2.225534e-02
        71         2       -5.041160e-01
        72         2       -2.757362e+00
        73         2       -1.793777e+00
        74         2       -1.322245e-02
        75         2       -1.535757e+00
        76         2       -1.032040e+00
        77         2        1.763922e+00
        78         2        1.463516e+00
        79         2        7.254049e-01
        80         2       -1.050653e+00
        81         2        3.310728e-01
        82         2       -3.491110e-01
        83         2       -2.300385e-01
        84         2        1.012464e+00
        85         2       -1.735996e-01
        86         2       -1.217651e+00
        87         2       -3.620317e-01
        88         2       -8.102200e-01
        89         2        1.019606e-01
        90         2        1.701137e+00
        91         2        3.849961e-01
        92         2        1.087055e+00
        93         2        9.014689e-01
        94         2        1.639482e-01
        95         2        3.063327e-01
        96         2       -6.169688e-01
        97         2        1.065239e-02
        98         2        1.118890e+00
        99         2       -1.475355e-01
       100         2       -5.908873e-01
         1         3        6.026735e-01
         2         3       -1.418523e+00
         3         3       -8.013570e-01
         4         3       -2.236169e+00
         5         3       -4.761010e-01
         6         3        1.484740e+00
         7         3        1.053192e+00
         8         3        6.768835e-01
         9         3        7.665868e-01
        10         3       -1.796544e+00
        11         3       -4.423457e-01
        12         3        1.988965e+00
        13         3       -3.826034e-01
        14         3        3.364524e-01
        15         3        4.623383e-01
        16         3        6.187791e-01
        17         3       -6.558778e-01
        18         3       -2.174469e+00
        19         3        2.791194e-01
        20         3        1.543241e+00
        21         3        1.722972e+00
        22         3        8.663306e-01
        23         3       -5.739797e-01
        24         3        2.846233e-01
        25         3        1.202748e-02
        26         3        3.084835e-01
        27         3        1.042413e+00
        28         3        4.892466e-02
        29         3        1.126820e+00
        30         3        1.283289e-01
        31         3       -4.812284e-02
        32         3        9.670576e-01
        33         3        2.899024e+00
        34         3        8.819620e-01
        35         3       -4.676110e-01
        36         3       -1.345609e+00
        37         3        1.053382e+00
        38         3        1.593138e-01
        39         3       -3.509960e-01
        40         3        1.378455e+00
        41         3       -6.302077e-01
        42         3       -3.996006e-01
        43         3       -2.580002e-01
        44         3       -8.809231e-02
        45         3        3.111468e-01
        46         3       -1.137613e+00
        47         3       -7.437468e-01
        48         3        8.715008e-02
        49         3       -9.489618e-01
        50         3        5.530772e-02
        51         3        1.523897e+00
        52         3       -3.948081e-01
        53         3        3.328305e-01
        54         3        6.276859e-01
        55         3        1.716570e+00
        56         3        9.920343e-01
        57         3        1.766970e+00
        58         3        4.668048e-01
        59         3        1.202454e+00
        60         3        6.711657e-03
        61         3       -4.026545e-02
        62         3       -4.833318e-01
        63         3        1.156213e+00
        64         3       -8.343157e-01
        65         3        7.925023e-01
        66         3       -3.320750e-01
        67         3        5.124493e-01
        68         3        1.082716e+00
        69         3       -3.796023e-01
        70         3        5.752552e-02
        71         3       -1.760181e-01
        72         3       -3.008127e-01
        73         3        4.376292e-01
        74         3        1.178592e-02
        75         3        9.494361e-01
        76         3       -3.032651e-01
        77         3        3.400946e-02
        78         3        8.434989e-02
        79         3       -9.733346e-01
        80         3       -3.815066e-01
        81         3        6.446542e-01
        82         3       -1.224856e-01
        83         3       -1.032906e+00
        84         3        1.342017e+00
        85         3        1.106432e+00
        86         3       -1.049879e+00
        87         3       -6.006319e-01
        88         3        9.032013e-01
        89         3        1.569811e+00
        90         3       -1.244079e+00
        91         3        1.003163e+00
        92         3       -5.047365e-01
        93         3       -1.256420e-01
        94         3       -2.228125e-01
        95         3       -3.558243e-01
        96         3       -1.141740e-01
        97         3       -1.362715e+00
        98         3        3.125814e+00
        99         3       -6.306485e-01
       100         3        2.604919e-02
         1         4        5.258136e-01
         2         4       -1.422201e+00
         3         4       -5.683746e-01
         4         4       -4.013217e-01
         5         4        1.266665e+00
         6         4       -9.753662e-01
         7         4       -1.873948e-01
         8         4       -2.196941e+00
         9         4        8.043346e-01
        10         4        7.047985e-01
        11         4       -1.742761e-01
        12         4       -7.401343e-01
        13         4       -3.402697e-01
        14         4       -2.037663e+00
        15         4       -6.425087e-01
        16         4        5.555717e-01
        17         4        9.674723e-01
        18         4       -7.309566e-03
        19         4        1.899746e-01
        20         4        2.834144e-01
        21         4        1.011756e+00
        22         4       -1.011886e-01
        23         4       -1.542478e+00
        24         4        9.226816e-02
        25         4        7.847531e-01
        26         4        9.838067e-01
        27         4       -1.552532e+00
        28         4        1.691147e-01
        29         4       -1.539382e+00
        30         4       -3.168024e-01
        31         4       -7.798428e-01
        32         4       -1.633606e+00
        33         4        2.930825e-01
        34         4        3.532221e-01
        35         4        8.654610e-01
        36         4       -1.781490e+00
        37         4        1.202081e+00
        38         4       -5.080610e-01
        39         4        1.475341e-01
        40         4        3.141394e-01
        41         4        1.658923e+00
        42         4       -2.033931e+00
        43         4       -1.607882e+00
        44         4       -6.136642e-01
        45         4        8.586685e-02
        46         4        9.762876e-01
        47         4       -1.626602e+00
        48         4       -5.764555e-01
        49         4       -1.767588e+00
        50         4       -1.671071e-01
        51         4       -2.410131e-01
        52         4       -2.167837e-02
        53         4       -4.261987e-01
        54         4       -5.532592e-01
        55         4       -1.507364e+00
        56         4        2.667411e-01
        57         4        1.079997e+00
        58         4        1.447224e+00
        59         4       -8.622637e-01
        60         4        9.816136e-03
        61         4       -5.604084e-01
        62         4       -7.368192e-01
        63         4       -3.924059e-01
        64         4        3.621543e-01
        65         4        1.048015e+00
        66         4        5.662793e-01
        67         4       -1.376412e+00
        68         4        4.297430e-01
        69         4       -8.556493e-01
        70         4        5.754202e-01
        71         4        1.156244e+00
        72         4        8.270495e-01
        73         4       -1.079555e+00
        74         4        2.203709e-01
        75         4       -8.526510e-01
        76         4        2.440895e-01
        77         4       -3.957898e-01
        78         4        4.317728e-01
        79         4        6.362167e-01
        80         4       -7.199329e-01
        81         4        1.164611e+00
        82         4        2.392545e-01
        83         4       -5.392234e-01
        84         4        1.166377e+00
        85         4        1.321618e-01
        86         4        6.396803e-01
        87         4       -9.785338e-01
        88         4        1.553458e+00
        89         4        8.119921e-01
        90         4       -7.463867e-02
        91         4        3.478632e-01
        92         4        7.315957e-01
        93         4        1.113691e-01
        94         4       -1.566633e+00
        95         4       -3.466391e-01
        96         4       -1.198795e+00
        97         4        5.632904e-01
        98         4       -1.305937e+00
        99         4       -2.273950e-01
       100         4       -1.074400e+00
         1         5        1.013123e+00
         2         5       -2.358032e+00
         3         5        4.986692e-01
         4         5       -1.651831e+00
         5         5       -1.229926e+00
         6         5        1.336867e+00
         7         5        3.095708e-01
         8         5       -2.387750e-01
         9         5        7.897943e-01
        10         5        4.252675e-01
        11         5        7.827071e-01
        12         5       -6.528883e-01
        13         5       -6.828238e-01
        14         5        7.400045e-01
        15         5        7.936065e-01
        16         5       -1.257775e+00
        17         5        5.171548e-03
        18         5       -6.183806e-02
        19         5       -8.400589e-01
        20         5        9.199104e-01
        21         5       -1.139568e+00
        22         5        3.984512e-01
        23         5        4.482012e-01
        24         5        3.112991e-02
        25         5       -6.203171e-01
        26         5       -1.085095e+00
        27         5       -1.653848e+00
        28         5        2.736744e-01
        29         5       -3.501319e-01
        30         5       -7.477039e-02
        31         5       -1.122689e+00
        32         5       -8.402868e-01
        33         5       -2.994676e-01
        34         5        3.317225e-01
        35         5        7.210370e-01
        36         5       -1.256952e+00
        37         5       -3.257693e-01
        38         5       -5.438524e-01
        39         5        7.187048e-01
        40         5        1.423875e-01
        41         5        7.729709e-01
        42         5       -7.792963e-01
        43         5        9.504887e-01
        44         5        1.272882e+00
        45         5       -8.436963e-01
        46         5       -4.160066e-01
        47         5       -9.631679e-01
        48         5        1.021381e+00
        49         5        6.417038e-01
        50         5        6.255263e-01
        51         5       -2.044213e-01
        52         5        2.758407e-01
        53         5        1.252609e-01
        54         5       -1.012894e+00
        55         5        2.972332e-01
        56         5       -9.097819e-01
        57         5       -1.023051e+00
        58         5        4.142797e-01
        59         5        4.581443e-01
        60         5        3.006710e-01
        61         5       -3.361009e-01
        62         5       -6.318386e-01
        63         5       -3.456256e-01
        64         5       -7.204184e-01
        65         5        1.181033e+00
        66         5       -6.931647e-01
        67         5       -1.958764e+00
        68         5        1.497504e-01
        69         5        1.077831e-01
        70         5       -8.879352e-01
        71         5       -1.191139e+00
        72         5       -2.401502e+00
        73         5       -9.781192e-01
        74         5        3.643950e-01
        75         5        5.743846e-01
        76         5        2.027081e-01
        77         5        8.376681e-01
        78         5       -2.475000e+00
        79         5        1.619413e+00
        80         5       -5.070060e-01
        81         5       -5.170690e-02
        82         5        4.706564e-01
        83         5        1.162683e+00
        84         5       -3.619568e-01
        85         5        1.544109e+00
        86         5        1.822146e+00
        87         5        2.762085e-01
        88         5       -1.497211e+00
        89         5        2.029432e-01
        90         5       -6.267638e-01
        91         5        2.545966e+00
        92         5       -1.498275e+00
        93         5       -3.746919e-02
        94         5       -3.244415e-01
        95         5        2.152098e+00
        96         5        1.874176e-01
        97         5        9.172715e-01
        98         5        1.455549e+00
        99         5        5.226978e-01
       100         5        1.561472e-02
;

param theta:=
    1        1.177690e+00
    2        2.366248e-01
    3        1.744622e-01
    4        4.149851e-01
    5        1.110882e+00
;
param X_true:=
    1        2.543463e+00
    2       -3.077241e+00
    3        1.774469e+00
    4       -3.374799e+00
    5       -1.008842e-01
    6       -1.847512e-01
    7        1.004388e+00
    8       -1.055668e+00
    9        2.137789e+00
   10        9.683468e-03
   11        4.386481e-01
   12       -6.245750e-01
   13       -1.102097e+00
   14       -1.913195e+00
   15        1.969536e+00
   16       -6.035279e-01
   17       -1.962252e-02
   18       -1.869154e+00
   19       -3.323708e-01
   20        2.244229e+00
   21       -1.689260e+00
   22        7.942544e-01
   23       -6.463471e-01
   24        9.391015e-01
   25        1.998915e+00
   26        4.444216e-01
   27       -3.166616e+00
   28        5.629892e-01
   29       -6.300038e-01
   30       -1.254007e+00
   31       -5.945698e-01
   32       -3.231141e-01
   33        4.840300e-01
   34        1.134397e+00
   35        2.087204e-01
   36       -4.210417e+00
   37       -2.750189e-01
   38        3.879293e-02
   39       -2.446217e-01
   40        1.430910e+00
   41        2.205505e-01
   42       -1.693815e+00
   43        3.057674e+00
   44        1.120280e+00
   45       -3.018128e+00
   46       -5.873693e-01
   47       -2.624595e+00
   48        1.184820e+00
   49       -1.480494e+00
   50        2.377758e+00
   51       -1.245065e+00
   52        1.307553e+00
   53        7.642366e-03
   54        9.042361e-01
   55       -8.919124e-03
   56       -1.910802e-01
   57       -2.912541e-01
   58       -1.653230e-01
   59       -2.491892e-01
   60       -1.712110e+00
   61       -2.716636e-01
   62       -1.057322e+00
   63       -7.187162e-01
   64       -2.621826e+00
   65        2.265227e+00
   66       -1.485908e+00
   67       -2.907761e+00
   68        4.719566e-01
   69       -1.389877e+00
   70        6.499879e-01
   71       -2.315921e+00
   72       -3.361319e+00
   73       -2.034643e+00
   74        4.019106e-01
   75       -9.306653e-01
   76       -7.279931e-01
   77       -7.424443e-01
   78       -1.995311e+00
   79        2.803020e+00
   80       -1.236437e+00
   81       -9.383687e-01
   82       -4.934628e-03
   83        2.714777e+00
   84        1.543629e+00
   85        3.220523e+00
   86        2.086848e+00
   87        1.245550e+00
   88       -6.641000e-01
   89        2.325095e+00
   90        2.831558e-02
   91        2.862746e+00
   92       -2.525028e+00
   93        1.774101e+00
   94       -4.967195e-01
   95        1.343473e+00
   96       -3.142216e-01
   97       -1.628187e+00
   98        1.923333e+00
   99        1.188060e-01
  100       -1.491247e+00
;
param X:=
    1       -7.165247e-01
    2        3.154516e-01
    3       -1.697962e-01
    4       -2.387893e-01
    5        1.561336e+00
    6       -1.045682e+00
    7       -9.053681e-01
    8        2.520928e-01
    9        4.541774e-01
   10        2.691619e-01
   11        4.386481e-01
   12       -6.245750e-01
   13       -9.978423e-02
   14        1.639952e+00
   15       -9.755762e-01
   16       -1.444032e+00
   17       -1.962252e-02
   18       -2.025083e+00
   19       -3.323708e-01
   20        2.244229e+00
   21       -5.279185e-01
   22       -2.120270e-01
   23        1.262105e+00
   24        9.391015e-01
   25       -9.304268e-01
   26       -3.072748e-01
   27       -2.878525e-01
   28        5.629892e-01
   29        7.725299e-01
   30       -1.358652e+00
   31        4.991986e-01
   32        4.544833e-01
   33        4.840300e-01
   34        6.498238e-01
   35        1.022897e+00
   36        4.201113e-01
   37       -1.083027e+00
   38        4.177813e-01
   39        5.373293e-01
   40       -3.188551e-01
   41        1.383003e+00
   42       -7.641691e-01
   43       -1.305012e+00
   44        1.120280e+00
   45        1.412902e+00
   46       -9.402316e-01
   47       -2.624595e+00
   48       -3.421764e-01
   49       -1.480494e+00
   50       -1.444593e-01
   51       -1.650237e+00
   52        1.307553e+00
   53        7.642366e-03
   54        7.354117e-01
   55        3.729652e-01
   56        3.797515e-01
   57       -6.764846e-01
   58       -5.672753e-01
   59       -1.663362e-02
   60        3.705447e-02
   61       -1.954458e+00
   62        1.300501e+00
   63       -7.888984e-01
   64        2.161399e+00
   65       -2.864066e-01
   66        5.433705e-01
   67       -2.907761e+00
   68        4.719566e-01
   69        1.337720e+00
   70       -8.397211e-01
   71        1.845066e+00
   72        6.656249e-01
   73       -1.559291e+00
   74        3.267767e-01
   75       -9.306653e-01
   76        1.201196e+00
   77       -1.102001e+00
   78       -1.003698e+00
   79       -8.690537e-02
   80       -4.744717e-01
   81       -3.675944e-01
   82        4.670423e-01
   83       -2.501182e+00
   84       -8.196020e-01
   85       -1.436674e+00
   86        1.350445e-01
   87        2.317219e-01
   88       -7.605773e-01
   89        1.783366e+00
   90       -8.017638e-02
   91        6.907053e-01
   92       -1.317432e+00
   93       -2.394563e+00
   94        4.807819e-02
   95        1.343473e+00
   96       -6.874388e-01
   97       -1.304146e+00
   98       -3.171865e-01
   99        1.188060e-01
  100       -2.503437e-01
;
param outliervec:=
    1    1
    2    1
    3    1
    4    1
    5    1
    6    1
    7    1
    8    1
    9    1
   10    1
   11    0
   12    0
   13    1
   14    1
   15    1
   16    1
   17    0
   18    1
   19    0
   20    0
   21    1
   22    1
   23    1
   24    0
   25    1
   26    1
   27    1
   28    0
   29    1
   30    1
   31    1
   32    1
   33    0
   34    1
   35    1
   36    1
   37    1
   38    1
   39    1
   40    1
   41    1
   42    1
   43    1
   44    0
   45    1
   46    1
   47    0
   48    1
   49    0
   50    1
   51    1
   52    0
   53    0
   54    1
   55    1
   56    1
   57    1
   58    1
   59    1
   60    1
   61    1
   62    1
   63    1
   64    1
   65    1
   66    1
   67    0
   68    0
   69    1
   70    1
   71    1
   72    1
   73    1
   74    1
   75    0
   76    1
   77    1
   78    1
   79    1
   80    1
   81    1
   82    1
   83    1
   84    1
   85    1
   86    1
   87    1
   88    1
   89    1
   90    1
   91    1
   92    1
   93    1
   94    1
   95    0
   96    1
   97    1
   98    1
   99    0
  100    1
;